c   #vars: 42   #clauses: 183   #literals: 530
c 
p cnf 42 183
5 -21 41 42 0
17 18 34 35 0
1 2 34 35 0
-1 -2 0
-3 -4 0
-6 -7 0
-8 -9 0
-10 -11 0
-12 -13 0
6 7 -13 21 0
-15 -16 0
-17 -18 0
-19 -20 0
-14 28 34 35 0
-22 -23 0
-24 -25 0
-26 -27 0
29 37 38 -41 0
17 18 -26 36 0
-30 -31 0
-32 -33 0
14 -17 39 40 0
-34 -35 0
-8 -11 -39 -40 0
-37 -38 0
5 -21 26 27 0
8 9 -10 -11 -40 0
1 2 37 38 0
-39 -40 0
-41 -42 0
6 7 30 31 0
1 2 30 31 0
5 -13 21 -41 0
-4 14 28 -39 0
-6 29 41 42 0
1 2 17 18 0
5 26 27 -41 0
29 -37 41 42 0
10 11 41 42 0
14 -17 28 -35 0
5 -13 21 -26 0
5 -26 41 42 0
-1 -15 0
-2 -16 0
15 16 30 31 0
-1 -17 0
-2 -18 0
19 20 32 33 0
-1 -24 0
-2 -25 0
19 20 37 38 0
-1 -30 0
-2 -31 0
22 23 37 38 0
-1 -34 0
-2 -35 0
15 16 39 40 0
-1 -37 0
-2 -38 0
-3 -22 0
-4 -23 0
-3 -28 0
-6 29 37 38 0
14 -28 39 40 0
-3 -34 0
-4 -35 0
-3 -37 0
-4 -38 0
5 -7 21 -41 0
-4 28 34 35 0
-5 -27 0
-15 -16 26 27 0
3 4 22 23 0
-5 -42 0
26 27 41 42 0
-6 -21 0
3 4 28 -35 0
-4 14 -17 28 0
-6 -26 0
-7 -27 0
12 13 34 35 0
-12 17 18 36 0
-7 -29 0
8 9 24 25 0
-6 -30 0
-7 -31 0
-6 -32 0
-7 -33 0
-8 -19 0
-9 -20 0
14 17 18 -39 0
-8 -24 0
-9 -25 0
-8 -30 0
-9 -31 0
-17 26 27 36 0
-8 -41 0
-9 -42 0
-10 -11 -39 -40 0
-10 -17 0
-11 -18 0
14 28 -35 -39 0
-10 -22 0
-11 -23 0
24 25 41 42 0
-8 -9 10 11 -40 0
-10 -41 0
-11 -42 0
3 4 34 35 0
-12 -21 0
3 4 -14 28 0
1 2 15 16 0
-12 -22 0
-13 -23 0
-12 -34 0
-13 -35 0
5 -7 21 -26 0
-8 -9 -39 -40 0
-13 -36 0
-5 6 7 21 0
-14 -18 0
8 9 19 20 0
-7 12 13 21 0
6 7 29 -41 0
10 11 22 23 0
-5 12 13 21 0
-14 -40 0
22 23 32 33 0
10 11 17 18 0
-15 -30 0
-16 -31 0
6 7 32 33 0
-15 -32 0
-16 -33 0
-9 -10 -39 -40 0
-15 -39 0
-16 -40 0
8 9 30 31 0
-17 -34 0
-18 -35 0
8 9 41 42 0
8 9 -10 -11 0
-18 -36 0
1 2 24 25 0
-19 -32 0
-20 -33 0
14 17 18 -28 0
-19 -37 0
-20 -38 0
22 23 30 31 0
-19 -39 0
-20 -40 0
3 4 37 38 0
-22 -30 0
-23 -31 0
-22 -32 0
-23 -33 0
24 25 39 40 0
-22 -37 0
-23 -38 0
12 13 22 23 0
-24 -39 0
-25 -40 0
-12 26 27 36 0
-24 -41 0
-25 -42 0
-26 -34 0
-27 -35 0
6 7 26 27 0
-8 -9 10 11 0
-27 -36 0
26 27 34 35 0
-26 -41 0
-27 -42 0
19 20 39 40 0
-28 -34 0
6 7 29 -37 0
15 16 -26 -27 0
12 13 -26 36 0
-29 -38 0
15 16 32 33 0
12 13 -17 36 0
-29 -42 0
